c preprocessed version of celar07-wpp, 45 vertices, 320 edges
p td 45 320
0 1
2 0
24 0
25 0
2 1
24 1
25 1
2 3
2 17
2 24
2 23
2 25
2 27
4 3
7 3
13 3
12 3
11 3
16 3
15 3
3 17
3 18
3 19
3 34
24 3
4 5
8 4
9 4
4 7
4 11
4 16
4 10
4 17
4 28
4 31
4 32
4 29
4 35
4 21
4 22
4 19
4 36
4 33
4 34
4 30
4 37
5 6
8 5
13 5
14 5
5 7
5 12
5 11
5 16
5 10
5 20
5 28
5 29
5 35
5 21
5 22
5 19
5 30
5 36
5 37
5 15
5 18
7 6
6 20
6 21
6 22
6 19
23 6
8 7
9 7
13 7
14 7
7 12
7 11
7 16
7 10
7 31
7 32
7 29
7 18
7 30
7 33
7 34
7 15
7 17
7 28
7 35
7 36
7 37
7 20
7 21
7 22
7 19
25 7
9 8
8 11
8 16
8 10
8 28
8 32
8 29
8 35
8 19
8 36
8 33
8 37
8 31
8 30
8 34
9 10
9 28
9 31
9 32
9 29
9 35
9 19
9 36
9 33
9 37
9 34
9 13
11 10
16 10
10 19
10 21
10 22
10 31
10 29
10 30
10 26
10 33
10 34
25 10
12 11
11 16
11 15
11 17
11 19
11 33
11 34
11 35
13 12
14 12
12 16
12 15
12 17
12 18
12 19
25 12
27 12
13 14
13 15
13 17
13 18
13 35
13 37
13 32
13 33
13 34
27 13
14 15
14 18
14 19
14 33
14 34
27 14
16 15
15 17
15 18
15 19
16 17
16 19
16 33
16 34
16 35
17 18
17 19
17 34
24 17
18 19
28 18
18 35
18 36
18 33
18 34
27 18
20 19
21 19
22 19
28 19
32 19
29 19
35 19
19 26
19 36
19 37
27 19
20 21
20 22
23 20
21 22
24 23
23 25
27 23
24 25
24 27
25 26
25 27
28 29
28 35
28 36
28 37
29 30
29 35
29 36
29 33
29 37
31 30
30 33
30 34
31 32
31 33
31 34
32 33
32 34
33 34
35 36
35 37
36 37
38 42
38 6
38 5
38 9
38 4
38 12
38 11
38 16
38 15
38 3
38 17
38 20
38 10
38 40
38 41
38 32
38 31
38 28
38 35
38 36
38 39
38 43
38 26
38 44
38 25
39 42
39 6
39 5
39 8
39 9
39 4
39 7
39 13
39 14
39 11
39 16
39 15
39 3
39 17
39 18
39 19
39 20
39 21
39 22
39 10
39 40
39 41
39 32
39 31
39 30
39 29
39 28
39 35
39 36
39 37
39 33
39 34
39 43
39 44
39 25
40 44
40 42
40 10
40 41
40 43
40 25
41 44
41 42
41 6
41 9
41 7
41 32
41 43
42 44
42 0
42 1
42 6
42 20
42 43
43 44
43 9
43 3
43 17
43 26
44 0
44 1
